NAME : kleinezf\2a3c4c.knd
COMMENT : 
TYPE : CVRP
DIMENSION : 201
EDGE_WEIGHT_TYPE : EUC_2D
CAPACITY : 11600
CAPACITY_VOL : 54
NODE_COORD_TYPE : TWOD_COORDS
NODE_COORD_SECTION
1 23452 56766
2 24989 56615
3 23721 55258
4 24389 55556
5 23962 58219
6 23843 55285
7 24680 57629
8 24936 56569
9 24641 55866
10 24641 55866
11 23904 55332
12 23292 55290
13 24675 55942
14 24935 56838
15 24935 56838
16 23138 55313
17 23093 55321
18 24065 55400
19 23481 55299
20 24833 57293
21 23224 55317
22 23115 55335
23 23610 55320
24 23909 55363
25 23204 55333
26 23795 58181
27 24515 55785
28 24521 57721
29 23975 55432
30 23975 55432
31 23109 55365
32 23975 55432
33 23761 55383
34 23411 55356
35 23956 55440
36 23984 55453
37 23956 55440
38 24164 55567
39 23307 55379
40 24002 55471
41 24724 56147
42 23934 55451
43 24337 55689
44 24825 56500
45 23129 55410
46 24665 56133
47 24665 56133
48 24097 55563
49 24825 56664
50 24144 55598
51 23286 55411
52 23771 55425
53 23286 55411
54 24208 55656
55 24018 55518
56 24194 55645
57 24157 55613
58 24271 55683
59 24343 55749
60 23019 55479
61 23769 55444
62 23920 55489
63 23756 55448
64 23756 55448
65 24133 55618
66 22984 55510
67 23837 58054
68 24120 55625
69 23970 55524
70 23091 55488
71 24360 55815
72 23121 55487
73 24755 56840
74 24231 55726
75 23121 55487
76 23214 55482
77 24271 55768
78 24525 57436
79 24110 55702
80 24589 56200
81 24705 56877
82 24438 56044
83 23721 55557
84 23164 55563
85 23573 55542
86 24618 56366
87 24191 55797
88 24336 55947
89 23190 55586
90 23497 55559
91 23891 55652
92 23559 55574
93 24308 55947
94 23277 55606
95 23682 55610
96 24111 55810
97 23041 55663
98 24214 55883
99 23878 55680
100 23511 55610
101 24518 56310
102 24085 55818
103 24582 56897
104 23759 55668
105 24255 55974
106 23818 55698
107 24167 55906
108 23220 55673
109 23841 55718
110 24248 56001
111 23628 55674
112 24203 55959
113 23237 55670
114 23774 55691
115 23593 55677
116 23882 55757
117 23909 55765
118 23660 57825
119 24448 56334
120 23588 55702
121 23190 55723
122 24248 57468
123 24226 56044
124 24501 56884
125 24500 56665
126 24141 55994
127 23657 55759
128 23562 55754
129 24127 57522
130 24269 56175
131 24193 56065
132 23835 55833
133 23835 55833
134 23457 55773
135 23997 55949
136 24235 57347
137 24418 56628
138 24072 56030
139 23637 55821
140 23920 55935
141 24229 56252
142 24229 56252
143 24229 56252
144 24229 56252
145 23685 55847
146 23479 55844
147 23702 57657
148 23479 55844
149 24363 56594
150 24205 56261
151 23778 55905
152 24349 56942
153 24149 56187
154 23717 57631
155 23723 55902
156 23519 55875
157 23519 55875
158 23670 55893
159 23519 55875
160 24180 57250
161 24307 56866
162 23946 56063
163 24103 56191
164 24051 57381
165 24111 56259
166 23788 56004
167 23322 55956
168 24210 56464
169 24210 56464
170 24032 57316
171 23026 57407
172 23026 57407
173 23021 56137
174 23922 57358
175 24146 57030
176 24130 56489
177 23609 56050
178 23882 57294
179 23038 57291
180 23038 57291
181 23896 57260
182 24073 56832
183 23163 56220
184 22918 56528
185 23141 56324
186 23967 56926
187 23240 57257
188 23530 57286
189 23938 56963
190 22987 56551
191 23288 56294
192 23220 56396
193 23763 56993
194 23742 56520
195 23815 56828
196 23276 56459
197 23140 56807
198 23620 57021
199 23182 56810
200 23639 56889
201 23289 56817
DEMAND_SECTION
1 0 0
2 90 0
3 20 0
4 30 0
5 60 0
6 30 0
7 10 0
8 40 0
9 30 0
10 30 0
11 40 0
12 80 0
13 60 0
14 20 0
15 40 0
16 50 0
17 90 0
18 10 0
19 50 0
20 60 0
21 60 0
22 30 0
23 80 0
24 30 0
25 30 0
26 10 0
27 20 0
28 60 0
29 80 0
30 80 0
31 40 0
32 80 0
33 70 0
34 70 0
35 40 0
36 10 0
37 60 0
38 60 0
39 70 0
40 90 0
41 40 0
42 80 0
43 60 0
44 50 0
45 10 0
46 90 0
47 60 0
48 80 0
49 40 0
50 50 0
51 50 0
52 60 0
53 10 0
54 50 0
55 20 0
56 40 0
57 10 0
58 90 0
59 10 0
60 90 0
61 70 0
62 90 0
63 50 0
64 30 0
65 90 0
66 60 0
67 30 0
68 60 0
69 70 0
70 20 0
71 70 0
72 70 0
73 40 0
74 40 0
75 50 0
76 50 0
77 10 0
78 80 0
79 60 0
80 40 0
81 50 0
82 70 0
83 40 0
84 20 0
85 40 0
86 70 0
87 90 0
88 20 0
89 40 0
90 20 0
91 90 0
92 20 0
93 60 0
94 30 0
95 30 0
96 10 0
97 90 0
98 20 0
99 60 0
100 30 0
101 40 0
102 30 0
103 30 0
104 40 0
105 60 0
106 70 0
107 10 0
108 20 0
109 30 0
110 30 0
111 60 0
112 70 0
113 30 0
114 60 0
115 90 0
116 90 0
117 60 0
118 70 0
119 70 0
120 30 0
121 40 0
122 10 0
123 40 0
124 70 0
125 90 0
126 90 0
127 40 0
128 90 0
129 30 0
130 90 0
131 20 0
132 50 0
133 20 0
134 70 0
135 20 0
136 70 0
137 80 0
138 20 0
139 90 0
140 80 0
141 40 0
142 40 0
143 40 0
144 90 0
145 20 0
146 70 0
147 60 0
148 90 0
149 90 0
150 90 0
151 90 0
152 60 0
153 90 0
154 70 0
155 50 0
156 30 0
157 70 0
158 90 0
159 10 0
160 60 0
161 10 0
162 40 0
163 80 0
164 20 0
165 20 0
166 50 0
167 70 0
168 80 0
169 60 0
170 70 0
171 20 0
172 20 0
173 90 0
174 10 0
175 30 0
176 30 0
177 50 0
178 50 0
179 50 0
180 20 0
181 50 0
182 90 0
183 80 0
184 30 0
185 30 0
186 80 0
187 80 0
188 10 0
189 60 0
190 30 0
191 40 0
192 30 0
193 10 0
194 80 0
195 80 0
196 60 0
197 50 0
198 80 0
199 60 0
200 90 0
201 70 0
PICKUP_SECTION
1 0 0
2 50 0
3 30 0
4 90 0
5 30 0
6 90 0
7 90 0
8 50 0
9 60 0
10 60 0
11 10 0
12 20 0
13 50 0
14 10 0
15 40 0
16 30 0
17 20 0
18 40 0
19 90 0
20 20 0
21 60 0
22 10 0
23 70 0
24 60 0
25 30 0
26 40 0
27 10 0
28 30 0
29 50 0
30 20 0
31 80 0
32 70 0
33 60 0
34 60 0
35 50 0
36 90 0
37 80 0
38 20 0
39 80 0
40 90 0
41 70 0
42 40 0
43 10 0
44 70 0
45 80 0
46 50 0
47 70 0
48 60 0
49 50 0
50 70 0
51 30 0
52 70 0
53 50 0
54 90 0
55 10 0
56 70 0
57 90 0
58 50 0
59 70 0
60 60 0
61 40 0
62 70 0
63 90 0
64 90 0
65 30 0
66 40 0
67 30 0
68 30 0
69 90 0
70 40 0
71 30 0
72 30 0
73 10 0
74 80 0
75 40 0
76 80 0
77 40 0
78 80 0
79 20 0
80 80 0
81 20 0
82 80 0
83 30 0
84 60 0
85 10 0
86 80 0
87 60 0
88 40 0
89 20 0
90 40 0
91 80 0
92 80 0
93 30 0
94 30 0
95 80 0
96 70 0
97 30 0
98 60 0
99 90 0
100 90 0
101 20 0
102 70 0
103 90 0
104 10 0
105 10 0
106 90 0
107 70 0
108 70 0
109 10 0
110 80 0
111 30 0
112 20 0
113 40 0
114 60 0
115 20 0
116 10 0
117 50 0
118 20 0
119 20 0
120 90 0
121 10 0
122 50 0
123 60 0
124 10 0
125 50 0
126 30 0
127 40 0
128 40 0
129 10 0
130 80 0
131 40 0
132 70 0
133 70 0
134 50 0
135 80 0
136 70 0
137 40 0
138 60 0
139 10 0
140 40 0
141 60 0
142 90 0
143 60 0
144 50 0
145 50 0
146 20 0
147 30 0
148 80 0
149 50 0
150 20 0
151 40 0
152 90 0
153 20 0
154 10 0
155 60 0
156 60 0
157 60 0
158 70 0
159 90 0
160 50 0
161 20 0
162 80 0
163 60 0
164 10 0
165 50 0
166 50 0
167 30 0
168 80 0
169 10 0
170 40 0
171 20 0
172 70 0
173 10 0
174 80 0
175 30 0
176 90 0
177 40 0
178 10 0
179 60 0
180 90 0
181 50 0
182 20 0
183 80 0
184 10 0
185 70 0
186 40 0
187 40 0
188 80 0
189 40 0
190 10 0
191 90 0
192 10 0
193 60 0
194 80 0
195 30 0
196 30 0
197 30 0
198 60 0
199 10 0
200 60 0
201 10 0
TIME_WINDOW_SECTION
2  7:00 18:00
3  7:00 18:00
4  7:00 18:00
5  7:00 18:00
6  7:00 18:00
7  7:00 18:00
8  7:00 18:00
9  7:00 18:00
10  7:00 18:00
11  7:00 18:00
12  7:00 18:00
13  7:00 18:00
14  7:00 18:00
15  7:00 18:00
16  7:00 18:00
17  7:00 18:00
18  7:00 18:00
19  7:00 18:00
20  7:00 18:00
21  7:00 18:00
22  7:00 18:00
23  7:00 18:00
24  7:00 18:00
25  7:00 18:00
26  7:00 18:00
27  7:00 18:00
28  7:00 18:00
29  7:00 18:00
30  7:00 18:00
31  7:00 18:00
32  7:00 18:00
33  7:00 18:00
34  7:00 18:00
35  7:00 18:00
36  7:00 18:00
37  7:00 18:00
38  7:00 18:00
39  7:00 18:00
40  7:00 18:00
41  7:00 18:00
42  7:00 18:00
43  7:00 18:00
44  7:00 18:00
45  7:00 18:00
46  7:00 18:00
47  7:00 18:00
48  7:00 18:00
49  7:00 18:00
50  7:00 18:00
51  7:00 18:00
52  7:00 18:00
53  7:00 18:00
54  7:00 18:00
55  7:00 18:00
56  7:00 18:00
57  7:00 18:00
58  7:00 18:00
59  7:00 18:00
60  7:00 18:00
61  7:00 18:00
62  7:00 18:00
63  7:00 18:00
64  7:00 18:00
65  7:00 18:00
66  7:00 18:00
67  7:00 18:00
68  7:00 18:00
69  7:00 18:00
70  7:00 18:00
71  7:00 18:00
72  7:00 18:00
73  7:00 18:00
74  7:00 18:00
75  7:00 18:00
76  7:00 18:00
77  7:00 18:00
78  7:00 18:00
79  7:00 18:00
80  7:00 18:00
81  7:00 18:00
82  7:00 18:00
83  7:00 18:00
84  7:00 18:00
85  7:00 18:00
86  7:00 18:00
87  7:00 18:00
88  7:00 18:00
89  7:00 18:00
90  7:00 18:00
91  7:00 18:00
92  7:00 18:00
93  7:00 18:00
94  7:00 18:00
95  7:00 18:00
96  7:00 18:00
97  7:00 18:00
98  7:00 18:00
99  7:00 18:00
100  7:00 18:00
101  7:00 18:00
102  7:00 18:00
103  7:00 18:00
104  7:00 18:00
105  7:00 18:00
106  7:00 18:00
107  7:00 18:00
108  7:00 18:00
109  7:00 18:00
110  7:00 18:00
111  7:00 18:00
112  7:00 18:00
113  7:00 18:00
114  7:00 18:00
115  7:00 18:00
116  7:00 18:00
117  7:00 18:00
118  7:00 18:00
119  7:00 18:00
120  7:00 18:00
121  7:00 18:00
122  7:00 18:00
123  7:00 18:00
124  7:00 18:00
125  7:00 18:00
126  7:00 18:00
127  7:00 18:00
128  7:00 18:00
129  7:00 18:00
130  7:00 18:00
131  7:00 18:00
132  7:00 18:00
133  7:00 18:00
134  7:00 18:00
135  7:00 18:00
136  7:00 18:00
137  7:00 18:00
138  7:00 18:00
139  7:00 18:00
140  7:00 18:00
141  7:00 18:00
142  7:00 18:00
143  7:00 18:00
144  7:00 18:00
145  7:00 18:00
146  7:00 18:00
147  7:00 18:00
148  7:00 18:00
149  7:00 18:00
150  7:00 18:00
151  7:00 18:00
152  7:00 18:00
153  7:00 18:00
154  7:00 18:00
155  7:00 18:00
156  7:00 18:00
157  7:00 18:00
158  7:00 18:00
159  7:00 18:00
160  7:00 18:00
161  7:00 18:00
162  7:00 18:00
163  7:00 18:00
164  7:00 18:00
165  7:00 18:00
166  7:00 18:00
167  7:00 18:00
168  7:00 18:00
169  7:00 18:00
170  7:00 18:00
171  7:00 18:00
172  7:00 18:00
173  7:00 18:00
174  7:00 18:00
175  7:00 18:00
176  7:00 18:00
177  7:00 18:00
178  7:00 18:00
179  7:00 18:00
180  7:00 18:00
181  7:00 18:00
182  7:00 18:00
183  7:00 18:00
184  7:00 18:00
185  7:00 18:00
186  7:00 18:00
187  7:00 18:00
188  7:00 18:00
189  7:00 18:00
190  7:00 18:00
191  7:00 18:00
192  7:00 18:00
193  7:00 18:00
194  7:00 18:00
195  7:00 18:00
196  7:00 18:00
197  7:00 18:00
198  7:00 18:00
199  7:00 18:00
200  7:00 18:00
201  7:00 18:00
STANDTIME_SECTION
2 10
3 10
4 10
5 10
6 10
7 10
8 10
9 10
10 10
11 10
12 10
13 10
14 10
15 10
16 10
17 10
18 10
19 10
20 10
21 10
22 10
23 10
24 10
25 10
26 10
27 10
28 10
29 10
30 10
31 10
32 10
33 10
34 10
35 10
36 10
37 10
38 10
39 10
40 10
41 10
42 10
43 10
44 10
45 10
46 10
47 10
48 10
49 10
50 10
51 10
52 10
53 10
54 10
55 10
56 10
57 10
58 10
59 10
60 10
61 10
62 10
63 10
64 10
65 10
66 10
67 10
68 10
69 10
70 10
71 10
72 10
73 10
74 10
75 10
76 10
77 10
78 10
79 10
80 10
81 10
82 10
83 10
84 10
85 10
86 10
87 10
88 10
89 10
90 10
91 10
92 10
93 10
94 10
95 10
96 10
97 10
98 10
99 10
100 10
101 10
102 10
103 10
104 10
105 10
106 10
107 10
108 10
109 10
110 10
111 10
112 10
113 10
114 10
115 10
116 10
117 10
118 10
119 10
120 10
121 10
122 10
123 10
124 10
125 10
126 10
127 10
128 10
129 10
130 10
131 10
132 10
133 10
134 10
135 10
136 10
137 10
138 10
139 10
140 10
141 10
142 10
143 10
144 10
145 10
146 10
147 10
148 10
149 10
150 10
151 10
152 10
153 10
154 10
155 10
156 10
157 10
158 10
159 10
160 10
161 10
162 10
163 10
164 10
165 10
166 10
167 10
168 10
169 10
170 10
171 10
172 10
173 10
174 10
175 10
176 10
177 10
178 10
179 10
180 10
181 10
182 10
183 10
184 10
185 10
186 10
187 10
188 10
189 10
190 10
191 10
192 10
193 10
194 10
195 10
196 10
197 10
198 10
199 10
200 10
201 10
DEPOT_SECTION
1
-1
EOF
